&GLOBAL
  PROJECT (???)              ! select the name of project
  RUN_TYPE (???)             ! select the kind of calculation
  PRINT_LEVEL (???)          ! select the level of printing in output
&END GLOBAL
&MOTION
  &GEO_OPT
    TYPE MINIMIZATION
    MAX_DR    1.0E-03
    MAX_FORCE 1.0E-03
    RMS_DR    1.0E-03
    RMS_FORCE 1.0E-03
    MAX_ITER 200
    OPTIMIZER CG
    &CG
      MAX_STEEP_STEPS  0
      RESTART_LIMIT 9.0E-01
    &END CG
  &END GEO_OPT
  &CONSTRAINT
    &FIXED_ATOMS
      COMPONENTS_TO_FIX XYZ
      LIST (???)              ! select the type of constraint
    &END FIXED_ATOMS
  &END CONSTRAINT
&END MOTION
&FORCE_EVAL
  METHOD (???)                ! select the method of calculation
  &SUBSYS
    &CELL
      ABC (???) (???) (???)   ! select the cell size (boundary condition)
    &END CELL
    &COORD
    (???)                     ! insert the initial coordinates
    &END COORD
    &KIND (???)               ! section to select the atom type #1
      BASIS_SET (???)         ! select the basis sets
      POTENTIAL (???)         ! select the potential
    &END KIND
    &KIND (???)               ! section to select the atom type #2
      BASIS_SET (???)         ! select the basis sets
      POTENTIAL (???)         ! select the potential
    &END KIND
  &END SUBSYS
  &DFT
    BASIS_SET_FILE_NAME ./BASIS_SET
    POTENTIAL_FILE_NAME ./POTENTIAL
    &QS
      EPS_DEFAULT 1.0E-7
    &END QS
    &MGRID
      CUTOFF 200
      NGRIDS 4
      REL_CUTOFF 30
    &END MGRID
    &SCF                       !do the convergence
      SCF_GUESS ATOMIC
      EPS_SCF 1.0E-05
      MAX_SCF 200            
      &DIAGONALIZATION T      !type and parameters for Kohn-Sham matrix diagonalization
        ALGORITHM STANDARD
      &END DIAGONALIZATION
      &MIXING T
        ALPHA 0.5
        METHOD PULAY_MIXING
        NPULAY 5
      &END MIXING
      &PRINT
        &RESTART OFF
        &END RESTART
      &END PRINT
    &END SCF
    &XC
      &XC_FUNCTIONAL (???)     ! select the exchange correlation functional
      &END XC_FUNCTIONAL
    &END XC
  &END DFT
&END FORCE_EVAL
